     Program PWSCF v.6.4.1 starts on 15Jan2023 at  3:56:51

     Waiting for input...
     Reading input from standard input

     Current dimensions of program PWSCF are:
     Max number of different atomic species (ntypx) = 10
     Max number of k-points (npk) =  40000
     Max angular momentum in pseudopotentials (lmaxx) =  3
     Message from routine setup:
     At least one non s.o. pseudo

     Subspace diagonalization in iterative solution of the eigenvalue problem:
     a serial algorithm will be used

     bravais-lattice index     =            5
     lattice parameter (alat)  =       4.4950  a.u.
     unit-cell volume          =      57.1897 (a.u.)^3
     number of atoms/cell      =           10
     number of atomic types    =            2
     number of electrons       =        48.00
     number of Kohn-Sham states=           52
     kinetic-energy cutoff     =      50.0000  Ry
     charge density cutoff     =     450.0000  Ry
     convergence threshold     =      1.0E-06
     mixing beta               =       0.7000
     number of iterations used =            8  plain     mixing
     Exchange-correlation      = SLA  PZ   NOGX NOGC ( 1  1  0  0 0 0)
     Non magnetic calculation with spin-orbit

     celldm(1)=   4.494960  celldm(2)=   0.000000  celldm(3)=   0.000000
     celldm(4)=   0.569423  celldm(5)=   0.000000  celldm(6)=   0.000000

     crystal axes: (cart. coord. in units of alat)
               a(1) = (   0.463992  -0.267886   0.844363 )
               a(2) = (   0.000000   0.535772   0.844363 )
               a(3) = (  -0.463992  -0.267886   0.844363 )

     reciprocal axes: (cart. coord. in units 2 pi/alat)
               b(1) = (  1.077605 -0.622156  0.394775 )
               b(2) = (  0.000000  1.244311  0.394775 )
               b(3) = ( -1.077605 -0.622156  0.394775 )

     PseudoPot. # 1 for Al read from file:
     .\al_lda_v1.uspp.F.UPF
     MD5 check sum: 51a9e5980debfdd3404790b200e14add
     Pseudo is Ultrasoft + core correction, Zval =  3.0
     Generated by new atomic code, or converted to UPF format
     Using radial grid of  893 points,  3 beta functions with:
                l(1) =   0
                l(2) =   1
                l(3) =   2
     Q(r) pseudized with  8 coefficients,  rinner =    0.900   0.900   0.900
                                                       0.900   0.900

     PseudoPot. # 2 for O  read from file:
     .\o_lda_v1.2.uspp.F.UPF
     MD5 check sum: 194b818514d2a7dbb603bb78519a4f40
     Pseudo is Ultrasoft + core correction, Zval =  6.0
     Generated by new atomic code, or converted to UPF format
     Using radial grid of  737 points,  5 beta functions with:
                l(1) =   0
                l(2) =   0
                l(3) =   1
                l(4) =   1
                l(5) =   2
     Q(r) pseudized with  8 coefficients,  rinner =    0.900   0.900   0.900
                                                       0.900   0.900

     atomic species   valence    mass     pseudopotential
        Al             3.00    26.98154     Al( 1.00)
        O              6.00    15.99900     O ( 1.00)

     12 Sym. Ops., with inversion, found ( 6 have fractional translation)

                                    s                        frac. trans.

      isym =  1     identity

 cryst.   s( 1) = (     1          0          0      )
                  (     0          1          0      )
                  (     0          0          1      )

 cart.    s( 1) = (  1.0000000  0.0000000  0.0000000 )
                  (  0.0000000  1.0000000  0.0000000 )
                  (  0.0000000  0.0000000  1.0000000 )

      isym =  2     180 deg rotation - cart. axis [1,0,0]

 cryst.   s( 2) = (     0          0         -1      )    f =(  0.5000000 )
                  (     0         -1          0      )       (  0.5000000 )
                  (    -1          0          0      )       (  0.5000000 )

 cart.    s( 2) = (  1.0000000  0.0000000  0.0000000 )    f =(  0.0000000 )
                  (  0.0000000 -1.0000000  0.0000000 )       ( -0.0000000 )
                  (  0.0000000  0.0000000 -1.0000000 )       (  1.2665443 )

      isym =  3     120 deg rotation - cryst. axis [0,0,1]

[...]

      isym =  6     180 deg rotation - cryst. axis [1,1,0]

[...]

      isym =  7     inversion

[...]

      isym =  8     inv. 180 deg rotation - cart. axis [1,0,0]

 cryst.   s( 8) = (     0          0          1      )    f =( -0.5000000 )
                  (     0          1          0      )       ( -0.5000000 )
                  (     1          0          0      )       ( -0.5000000 )

 cart.    s( 8) = ( -1.0000000  0.0000000  0.0000000 )    f =(  0.0000000 )
                  (  0.0000000  1.0000000  0.0000000 )       (  0.0000000 )
                  (  0.0000000  0.0000000  1.0000000 )       ( -1.2665443 )

      isym =  9     inv. 120 deg rotation - cryst. axis [0,0,1]

 cryst.   s( 9) = (     0         -1          0      )
                  (     0          0         -1      )
                  (    -1          0          0      )

 cart.    s( 9) = (  0.5000000  0.8660254  0.0000000 )
                  ( -0.8660254  0.5000000  0.0000000 )
                  (  0.0000000  0.0000000 -1.0000000 )

[...]

 cryst.   s(10) = (     0          0         -1      )
                  (    -1          0          0      )
                  (     0         -1          0      )

 cart.    s(10) = (  0.5000000 -0.8660254 -0.0000000 )
                  (  0.8660254  0.5000000  0.0000000 )
                  (  0.0000000  0.0000000 -1.0000000 )

[...]

 cryst.   s(11) = (     0          1          0      )    f =( -0.5000000 )
                  (     1          0          0      )       ( -0.5000000 )
                  (     0          0          1      )       ( -0.5000000 )

 cart.    s(11) = (  0.5000000  0.8660254  0.0000000 )    f =(  0.0000000 )
                  (  0.8660254 -0.5000000 -0.0000000 )       (  0.0000000 )
                  (  0.0000000  0.0000000  1.0000000 )       ( -1.2665443 )

      isym = 12     inv. 180 deg rotation - cryst. axis [1,1,0]

 cryst.   s(12) = (     1          0          0      )    f =( -0.5000000 )
                  (     0          0          1      )       ( -0.5000000 )
                  (     0          1          0      )       ( -0.5000000 )

 cart.    s(12) = (  0.5000000 -0.8660254 -0.0000000 )    f =( -0.0000000 )
                  ( -0.8660254 -0.5000000 -0.0000000 )       (  0.0000000 )
                  (  0.0000000  0.0000000  1.0000000 )       ( -1.2665443 )

     double point group D_3d (-3m)
     there are 12 classes and  6 irreducible representations
     the character table:

       E     -E    2C3   -2C3  3C2'  -3C2' i     -i    2S6   -2S6  3s_v  -3s_v

G_4+   2.00 -2.00  1.00 -1.00  0.00  0.00  2.00 -2.00  1.00 -1.00  0.00  0.00
G_5+   1.00 -1.00 -1.00  1.00  0.00  0.00  1.00 -1.00 -1.00  1.00  0.00  0.00
G_6+   1.00 -1.00 -1.00  1.00  0.00  0.00  1.00 -1.00 -1.00  1.00  0.00  0.00
G_4-   2.00 -2.00  1.00 -1.00  0.00  0.00 -2.00  2.00 -1.00  1.00  0.00  0.00
G_5-   1.00 -1.00 -1.00  1.00  0.00  0.00 -1.00  1.00  1.00 -1.00  0.00  0.00
G_6-   1.00 -1.00 -1.00  1.00  0.00  0.00 -1.00  1.00  1.00 -1.00  0.00  0.00

     imaginary part

       E     -E    2C3   -2C3  3C2'  -3C2' i     -i    2S6   -2S6  3s_v  -3s_v

G_4+   0.00  0.00  0.00  0.00  0.00  0.00  0.00  0.00  0.00  0.00  0.00  0.00
G_5+   0.00  0.00  0.00  0.00  1.00 -1.00  0.00  0.00  0.00  0.00  1.00 -1.00
G_6+   0.00  0.00  0.00  0.00 -1.00  1.00  0.00  0.00  0.00  0.00 -1.00  1.00
G_4-   0.00  0.00  0.00  0.00  0.00  0.00  0.00  0.00  0.00  0.00  0.00  0.00
G_5-   0.00  0.00  0.00  0.00  1.00 -1.00  0.00  0.00  0.00  0.00 -1.00  1.00
G_6-   0.00  0.00  0.00  0.00 -1.00  1.00  0.00  0.00  0.00  0.00  1.00 -1.00

     the symmetry operations in each class and the name of the first element:

     E             1
          identity
     -E           -1
          identity E
     2C3           3    4
          120 deg rotation - cryst. axis [0,0,1]
     -2C3         -3   -4
          120 deg rotation - cryst. axis [0,0,1] E
     3C2'          2   -5   -6
          180 deg rotation - cart. axis [1,0,0]
     3C2'          5    6   -2
          180 deg rotation - cryst. axis [0,1,0]
     i             7
          inversion
     -i           -7
          inversion E
     2S6           9   10
          inv. 120 deg rotation - cryst. axis [0,0,1]
     -2S6         -9  -10
          inv. 120 deg rotation - cryst. axis [0,0,1] E
     3s_v          8  -11  -12
          inv. 180 deg rotation - cart. axis [1,0,0]
     3s_v         11   12   -8
          inv. 180 deg rotation - cryst. axis [0,1,0]

   Cartesian axes

     site n.     atom                  positions (alat units)
         1           Al  tau(   1) = (   0.0000000  -0.0000000   0.3727618  )
         2           Al  tau(   2) = (   0.0000000  -0.0000000   0.8937825  )
         3           Al  tau(   3) = (   0.0000000  -0.0000000   1.6393062  )
         4           Al  tau(   4) = (   0.0000000  -0.0000000   2.1603268  )
         5           O   tau(   5) = (  -0.1807109   0.2678859   1.0554536  )
         6           O   tau(   6) = (  -0.3223514  -0.0225573   1.4776350  )
         7           O   tau(   7) = (  -0.1416405  -0.2904432   1.0554536  )
         8           O   tau(   8) = (   0.1416405   0.2904432   1.4776350  )
         9           O   tau(   9) = (   0.3223514   0.0225573   1.0554536  )
        10           O   tau(  10) = (   0.1807109  -0.2678859   1.4776350  )

   Crystallographic axes

     site n.     atom                  positions (cryst. coord.)
         1           Al  tau(   1) = (  0.1471570  0.1471570  0.1471570  )
         2           Al  tau(   2) = (  0.3528430  0.3528430  0.3528430  )
         3           Al  tau(   3) = (  0.6471570  0.6471570  0.6471570  )
         4           Al  tau(   4) = (  0.8528430  0.8528430  0.8528430  )
         5           O   tau(   5) = (  0.0552650  0.7500000  0.4447350  )
         6           O   tau(   6) = (  0.2500000  0.5552650  0.9447350  )
         7           O   tau(   7) = (  0.4447350  0.0552650  0.7500000  )
         8           O   tau(   8) = (  0.5552650  0.9447350  0.2500000  )
         9           O   tau(   9) = (  0.7500000  0.4447350  0.0552650  )
        10           O   tau(  10) = (  0.9447350  0.2500000  0.5552650  )

     number of k points=    13
                       cart. coord. in units 2pi/alat
        k(    1) = (   0.0000000   0.0000000   0.0000000), wk =   0.0156250
        k(    2) = (  -0.2694012  -0.1555389   0.0986937), wk =   0.0937500
        k(    3) = (   0.5388025   0.3110778  -0.1973875), wk =   0.0468750
        k(    4) = (  -0.2694012   0.1555389   0.1973875), wk =   0.0937500
        k(    5) = (   0.5388025   0.6221555  -0.0986937), wk =   0.1875000
        k(    6) = (   0.2694012   0.4666166   0.0000000), wk =   0.0937500
        k(    7) = (   0.5388025  -0.3110778  -0.3947750), wk =   0.0468750
        k(    8) = (   0.0000000   0.0000000   0.2960812), wk =   0.0312500
        k(    9) = (   0.8082037   0.4666166   0.0000000), wk =   0.0937500
        k(   10) = (   0.5388025   0.3110778   0.0986937), wk =   0.0937500
        k(   11) = (   0.8082037  -0.4666166  -0.2960812), wk =   0.0937500
        k(   12) = (   0.5388025  -0.6221555  -0.1973875), wk =   0.0937500
        k(   13) = (   0.0000000   0.0000000  -0.5921625), wk =   0.0156250

                       cryst. coord.
        k(    1) = (   0.0000000   0.0000000   0.0000000), wk =   0.0156250
        k(    2) = (   0.0000000   0.0000000   0.2500000), wk =   0.0937500
        k(    3) = (   0.0000000   0.0000000  -0.5000000), wk =   0.0468750
        k(    4) = (   0.0000000   0.2500000   0.2500000), wk =   0.0937500
        k(    5) = (  -0.0000000   0.2500000  -0.5000000), wk =   0.1875000
        k(    6) = (  -0.0000000   0.2500000  -0.2500000), wk =   0.0937500
        k(    7) = (  -0.0000000  -0.5000000  -0.5000000), wk =   0.0468750
        k(    8) = (   0.2500000   0.2500000   0.2500000), wk =   0.0312500
        k(    9) = (   0.2500000   0.2500000  -0.5000000), wk =   0.0937500
        k(   10) = (   0.2500000   0.2500000  -0.2500000), wk =   0.0937500
        k(   11) = (   0.2500000  -0.5000000  -0.5000000), wk =   0.0937500
        k(   12) = (   0.2500000  -0.5000000  -0.2500000), wk =   0.0937500
        k(   13) = (  -0.5000000  -0.5000000  -0.5000000), wk =   0.0156250

     Initial potential from superposition of free atoms

     starting charge   47.99122, renormalised to   48.00000
     Starting wfcs are   80 randomized atomic wfcs

     Self-consistent Calculation

     iteration #  1     ecut=    50.00 Ry     beta= 0.70
     Davidson diagonalization with overlap
     ethr =  1.00E-02,  avg # of iterations =  4.5

     total energy              =    -113.51996032 Ry
     Harris-Foulkes estimate   =    -120.52738533 Ry
     estimated scf accuracy    <      11.36343958 Ry

[...]

     total energy              =    -114.60425724 Ry
     Harris-Foulkes estimate   =    -114.60425869 Ry
     estimated scf accuracy    <       0.00000259 Ry

     iteration #  6     ecut=    50.00 Ry     beta= 0.70
     Davidson diagonalization with overlap
     ethr =  5.40E-09,  avg # of iterations =  2.0

     End of self-consistent calculation

          k = 0.0000 0.0000 0.0000 (   339 PWs)   bands (ev):

    50.5398  50.5398  50.5398  50.5398  51.1372  51.1372  53.6682  53.6682
    66.1065  66.1065  66.1065  66.1065  68.1959  68.1959  68.1959  68.1959
    73.2511  73.2511  77.6349  77.6349  80.3053  80.3053  80.3053  80.3053
    83.9974  83.9974  83.9974  83.9974  86.1478  86.1478  86.4057  86.4057
    86.4057  86.4057  89.1162  89.1162  91.4231  91.4231  91.4231  91.4231
    92.1282  92.1282  99.2653  99.2653  99.2653  99.2653  99.4971  99.4971
   111.6721 111.6721 129.8329 129.8329

     occupation numbers
     1.0000   1.0000   1.0000   1.0000   1.0000   1.0000   1.0000   1.0000
     1.0000   1.0000   1.0000   1.0000   1.0000   1.0000   1.0000   1.0000
     1.0000   1.0000   1.0000   1.0000   1.0000   1.0000   1.0000   1.0000
     1.0000   1.0000   1.0000   1.0000   1.0000   1.0000   1.0000   1.0000
     1.0000   1.0000   1.0000   1.0000   1.0000   1.0000   1.0000   1.0000
     1.0000   1.0000   1.0000   1.0000   1.0000   1.0000   1.0000   1.0000
     0.0000   0.0000   0.0000   0.0000

          k =-0.2694-0.1555 0.0987 (   335 PWs)   bands (ev):

[...]

          k =-0.2694 0.1555 0.1974 (   336 PWs)   bands (ev):

[...]

          k = 0.0000 0.0000-0.5922 (   344 PWs)   bands (ev):

    53.0803  53.0803  53.0803  53.0803  58.4547  58.4547  58.4547  58.4547
    58.4547  58.4547  58.4547  58.4547  70.3393  70.3393  70.3393  70.3393
    70.3393  70.3393  70.3393  70.3393  72.4039  72.4039  72.4039  72.4039
    85.8885  85.8885  85.8885  85.8885  85.8885  85.8885  85.8885  85.8885
    90.5925  90.5925  90.5925  90.5925  91.4151  91.4151  91.4151  91.4151
    92.9550  92.9550  92.9550  92.9550  92.9550  92.9550  92.9550  92.9550
   122.1695 122.1695 122.1695 122.1695

     occupation numbers
     1.0000   1.0000   1.0000   1.0000   1.0000   1.0000   1.0000   1.0000
     1.0000   1.0000   1.0000   1.0000   1.0000   1.0000   1.0000   1.0000
     1.0000   1.0000   1.0000   1.0000   1.0000   1.0000   1.0000   1.0000
     1.0000   1.0000   1.0000   1.0000   1.0000   1.0000   1.0000   1.0000
     1.0000   1.0000   1.0000   1.0000   1.0000   1.0000   1.0000   1.0000
     1.0000   1.0000   1.0000   1.0000   1.0000   1.0000   1.0000   1.0000
     0.0000   0.0000   0.0000   0.0000

     highest occupied, lowest unoccupied level (ev):    99.4971  108.3695

!    total energy              =    -114.60425749 Ry
     Harris-Foulkes estimate   =    -114.60425753 Ry
     estimated scf accuracy    <       0.00000007 Ry

     The total energy is the sum of the following terms:

     one-electron contribution =     348.62619730 Ry
     hartree contribution      =      16.99488793 Ry
     xc contribution           =    -100.25687381 Ry
     ewald contribution        =    -379.96846890 Ry

     convergence has been achieved in   6 iterations

     Writing output data file pwscf.save\

     General routines

     Parallel routines

   This run was terminated on:   3:57: 2  15Jan2023

   JOB DONE.