     Program PWSCF v.6.4.1 starts on 14Jan2023 at 18:10:56

     Waiting for input...
     Reading input from standard input

     Current dimensions of program PWSCF are:
     Max number of different atomic species (ntypx) = 10
     Max number of k-points (npk) =  40000
     Max angular momentum in pseudopotentials (lmaxx) =  3
     Message from routine setup:
     At least one non s.o. pseudo

     Subspace diagonalization in iterative solution of the eigenvalue problem:
     a serial algorithm will be used

     bravais-lattice index     =            5
     lattice parameter (alat)  =       9.7850  a.u.
     unit-cell volume          =     936.8774 (a.u.)^3
     number of atoms/cell      =           10
     number of atomic types    =            2
     number of electrons       =        48.00
     number of Kohn-Sham states=           58
     kinetic-energy cutoff     =      50.0000  Ry
     charge density cutoff     =     450.0000  Ry
     convergence threshold     =      1.0E-06
     mixing beta               =       0.7000
     number of iterations used =            8  plain     mixing
     Exchange-correlation      = SLA  PZ   NOGX NOGC ( 1  1  0  0 0 0)
     nstep                     =           50

     Non magnetic calculation with spin-orbit

     celldm(1)=   9.785002  celldm(2)=   0.000000  celldm(3)=   0.000000
     celldm(4)=   0.000000  celldm(5)=   0.000000  celldm(6)=   0.000000

     crystal axes: (cart. coord. in units of alat)
               a(1) = (   0.707107  -0.408248   0.577350 )
               a(2) = (   0.000000   0.816497   0.577350 )
               a(3) = (  -0.707107  -0.408248   0.577350 )

     reciprocal axes: (cart. coord. in units 2 pi/alat)
               b(1) = (  0.707107 -0.408248  0.577350 )
               b(2) = (  0.000000  0.816497  0.577350 )
               b(3) = ( -0.707107 -0.408248  0.577350 )

     PseudoPot. # 1 for Al read from file:
     .\al_lda_v1.uspp.F.UPF
     MD5 check sum: 51a9e5980debfdd3404790b200e14add
     Pseudo is Ultrasoft + core correction, Zval =  3.0
     Generated by new atomic code, or converted to UPF format
     Using radial grid of  893 points,  3 beta functions with:
                l(1) =   0
                l(2) =   1
                l(3) =   2
     Q(r) pseudized with  8 coefficients,  rinner =    0.900   0.900   0.900
                                                       0.900   0.900

     PseudoPot. # 2 for O  read from file:
     .\o_lda_v1.2.uspp.F.UPF
     MD5 check sum: 194b818514d2a7dbb603bb78519a4f40
     Pseudo is Ultrasoft + core correction, Zval =  6.0
     Generated by new atomic code, or converted to UPF format
     Using radial grid of  737 points,  5 beta functions with:
                l(1) =   0
                l(2) =   0
                l(3) =   1
                l(4) =   1
                l(5) =   2
     Q(r) pseudized with  8 coefficients,  rinner =    0.900   0.900   0.900
                                                       0.900   0.900

     atomic species   valence    mass     pseudopotential
        Al             3.00    26.98154     Al( 1.00)
        O              6.00    15.99900     O ( 1.00)

     12 Sym. Ops., with inversion, found ( 6 have fractional translation)

   Cartesian axes

     site n.     atom                  positions (alat units)
         1           Al  tau(   1) = (   0.0000000  -0.0000000   0.2561703  )
         2           Al  tau(   2) = (   0.0000000  -0.0000000   0.6098551  )
         3           Al  tau(   3) = (   0.0000000  -0.0000000   1.1221957  )
         4           Al  tau(   4) = (   0.0000000  -0.0000000   1.4758805  )
         5           O   tau(   5) = (  -0.2742160   0.4082483   0.7216878  )
         6           O   tau(   6) = (  -0.4906614  -0.0333539   1.0103630  )
         7           O   tau(   7) = (  -0.2164454  -0.4416022   0.7216878  )
         8           O   tau(   8) = (   0.2164454   0.4416022   1.0103630  )
         9           O   tau(   9) = (   0.4906614   0.0333539   0.7216878  )
        10           O   tau(  10) = (   0.2742160  -0.4082483   1.0103630  )

     number of k points=    22  gaussian smearing, width (Ry)=  0.0100
                       cart. coord. in units 2pi/alat
        k(    1) = (   0.0000000   0.0000000   0.0000000), wk =   0.0138889
        k(    2) = (   0.3535534   0.2041241  -0.2886751), wk =   0.0416667
        k(    3) = (   0.0000000   0.1360828   0.0962250), wk =   0.0555556
        k(    4) = (   0.3535534   0.3402069  -0.1924501), wk =   0.1111111
        k(    5) = (   0.0000000   0.2721655   0.1924501), wk =   0.0555556
        k(    6) = (   0.3535534   0.4762897  -0.0962250), wk =   0.1111111
        k(    7) = (   0.3535534  -0.2041241  -0.5773503), wk =   0.0416667
        k(    8) = (   0.1178511   0.0680414   0.1924501), wk =   0.0277778
        k(    9) = (   0.4714045   0.2721655  -0.0962250), wk =   0.0277778
        k(   10) = (   0.1178511   0.2041241   0.2886751), wk =   0.0555556
        k(   11) = (   0.4714045   0.4082483   0.0000000), wk =   0.0555556
        k(   12) = (   0.4714045  -0.2721655  -0.4811252), wk =   0.0555556
        k(   13) = (   0.1178511  -0.3402069  -0.0962250), wk =   0.0555556
        k(   14) = (   0.4714045  -0.1360828  -0.3849002), wk =   0.0555556
        k(   15) = (   0.1178511  -0.2041241  -0.0000000), wk =   0.0277778
        k(   16) = (   0.4714045   0.0000000  -0.2886751), wk =   0.0277778
        k(   17) = (   0.2357023   0.1360828   0.3849002), wk =   0.0277778
        k(   18) = (   0.5892557   0.3402069   0.0962250), wk =   0.0277778
        k(   19) = (   0.5892557  -0.3402069  -0.3849002), wk =   0.0555556
        k(   20) = (   0.2357023  -0.4082483  -0.0000000), wk =   0.0277778
        k(   21) = (   0.5892557  -0.2041241  -0.2886751), wk =   0.0277778
        k(   22) = (   0.0000000   0.0000000  -0.8660254), wk =   0.0138889

     Initial potential from superposition of free atoms

     starting charge   47.99122, renormalised to   48.00000
     Starting wfcs are   80 randomized atomic wfcs

     Self-consistent Calculation

     iteration #  1     ecut=    50.00 Ry     beta= 0.70
     Davidson diagonalization with overlap
     ethr =  1.00E-02,  avg # of iterations =  2.0

     total energy              =    -217.33337857 Ry
     Harris-Foulkes estimate   =    -219.24885448 Ry
     estimated scf accuracy    <       2.47258210 Ry

[...]

     End of self-consistent calculation

          k = 0.0000 0.0000 0.0000 (  5575 PWs)   bands (ev):

   -13.5476 -13.5476 -12.6234 -12.6234 -12.6234 -12.6234 -12.2915 -12.2915
   -12.2915 -12.2915 -12.0059 -12.0059  -3.3239  -3.3239  -1.7991  -1.7991
    -1.1826  -1.1826  -0.1909  -0.1909  -0.1909  -0.1909  -0.1444  -0.1444
    -0.1444  -0.1444   0.5251   0.5251   0.5251   0.5251   0.9982   0.9982
     1.3360   1.3360   1.3360   1.3360   2.0219   2.0219   2.4099   2.4099
     2.4112   2.4112   2.4112   2.4112   2.9907   2.9907   2.9907   2.9907
     3.4776   3.4776   3.5611   3.5611   3.9595   3.9595   5.1115   5.1115
     7.6243   7.6243

[...]

     the Fermi energy is     3.1464 ev

!    total energy              =    -218.78220675 Ry
     Harris-Foulkes estimate   =    -218.78220738 Ry
     estimated scf accuracy    <       0.00000093 Ry

     The total energy is the sum of the following terms:

     one-electron contribution =     -68.70523680 Ry
     hartree contribution      =      60.46422616 Ry
     xc contribution           =     -57.95482961 Ry
     ewald contribution        =    -152.58139096 Ry
     smearing contrib. (-TS)   =      -0.00497554 Ry

     convergence has been achieved in   7 iterations

     Forces acting on atoms (cartesian axes, Ry/au):

     atom    1 type  1   force =     0.00000000    0.00000000   -0.52859050
     atom    2 type  1   force =     0.00000000    0.00000000    0.52859050
     atom    3 type  1   force =    -0.00000000   -0.00000000   -0.52859050
     atom    4 type  1   force =     0.00000000    0.00000000    0.52859050
     atom    5 type  2   force =    -0.07058496    0.00000000   -0.00000000
     atom    6 type  2   force =    -0.03529248   -0.06112837   -0.00000000
     atom    7 type  2   force =     0.03529248   -0.06112837   -0.00000000
     atom    8 type  2   force =    -0.03529248    0.06112837    0.00000000
     atom    9 type  2   force =     0.03529248    0.06112837    0.00000000
     atom   10 type  2   force =     0.07058496    0.00000000    0.00000000

     Total force =     1.071226     Total SCF correction =     0.000255

     BFGS Geometry Optimization

     number of scf cycles    =   1
     number of bfgs steps    =   0

     energy             new  =    -218.7822067520 Ry

     new trust radius        =       0.5000000000 bohr
     new conv_thr            =       0.0000010000 Ry

ATOMIC_POSITIONS (crystal)
Al       0.118398204   0.118398204   0.118398204
Al       0.381601796   0.381601796   0.381601796
Al       0.618398204   0.618398204   0.618398204
Al       0.881601796   0.881601796   0.881601796
O        0.051275115   0.750000000   0.448724885
O        0.250000000   0.551275115   0.948724885
O        0.448724885   0.051275115   0.750000000
O        0.551275115   0.948724885   0.250000000
O        0.750000000   0.448724885   0.051275115
O        0.948724885   0.250000000   0.551275115

     Writing output data file pwscf.save\
     NEW-OLD atomic charge density approx. for the potential

     negative rho (up, down):  2.837E-03 0.000E+00

[...]

     energy             old  =    -218.7822067520 Ry
     energy             new  =    -219.1321089151 Ry

     CASE: energy            _new < energy            _old

[...]

     WARNING: bfgs curvature condition failed, Theta= 0.869
     new trust radius        =       0.1619048239 bohr
     new conv_thr            =       0.0000001101 Ry

[...]

     WARNING: bfgs curvature condition failed, Theta= 0.985
     new trust radius        =       0.0581760712 bohr
     new conv_thr            =       0.0000004468 Ry

[...]

     number of scf cycles    =  13
     number of bfgs steps    =  12

     energy             old  =    -220.1133845514 Ry
     energy             new  =    -220.1193763927 Ry

     CASE: energy            _new < energy            _old

     new trust radius        =       0.0059652397 bohr
     new conv_thr            =       0.0000000100 Ry

ATOMIC_POSITIONS (crystal)
Al       0.130151189   0.130151189   0.130151189
Al       0.369848811   0.369848811   0.369848811
Al       0.630151189   0.630151189   0.630151189
Al       0.869848811   0.869848811   0.869848811
O       -0.051694668   0.750000000   0.551694668
O        0.250000000   0.448305332   1.051694668
O        0.551694668  -0.051694668   0.750000000
O        0.448305332   1.051694668   0.250000000
O        0.750000000   0.551694668  -0.051694668
O        1.051694668   0.250000000   0.448305332

     Writing output data file pwscf.save\
     NEW-OLD atomic charge density approx. for the potential

     Self-consistent Calculation

[...]

     total energy              =    -220.11944631 Ry
     Harris-Foulkes estimate   =    -220.11944631 Ry
     estimated scf accuracy    <       0.00000003 Ry

     iteration #  6     ecut=    50.00 Ry     beta= 0.70
     Davidson diagonalization with overlap
     ethr =  6.45E-11,  avg # of iterations =  1.0

[...]

     End of self-consistent calculation

[...]

          k = 0.0000 0.0000-0.8660 (  5616 PWs)   bands (ev):

   -15.3901 -15.3901 -15.3901 -15.3901 -13.9482 -13.9482 -13.9482 -13.9482
   -13.9482 -13.9482 -13.9482 -13.9482  -3.1703  -3.1703  -3.1703  -3.1703
    -1.3777  -1.3777  -1.3777  -1.3777  -0.7719  -0.7719  -0.7719  -0.7719
    -0.7719  -0.7719  -0.7719  -0.7719   0.1008   0.1008   0.1008   0.1008
     0.1008   0.1008   0.1008   0.1008   1.3432   1.3432   1.3432   1.3432
     1.5131   1.5131   1.5131   1.5131   1.5131   1.5131   1.5131   1.5131
     2.4157   2.4157   2.4157   2.4157   7.8624   7.8624   7.8624   7.8624
     7.8624   7.8624

     the Fermi energy is     2.1537 ev

!    total energy              =    -220.11944630 Ry
     Harris-Foulkes estimate   =    -220.11944631 Ry
     estimated scf accuracy    <          6.5E-09 Ry

     The total energy is the sum of the following terms:

     one-electron contribution =     -98.09026532 Ry
     hartree contribution      =      74.18186604 Ry
     xc contribution           =     -59.76246558 Ry
     ewald contribution        =    -136.44213297 Ry
     smearing contrib. (-TS)   =      -0.00644847 Ry

     convergence has been achieved in   6 iterations

     negative rho (up, down):  3.781E-07 0.000E+00

     Forces acting on atoms (cartesian axes, Ry/au):

     atom    1 type  1   force =     0.00000000   -0.00000000   -0.00070364
     atom    2 type  1   force =     0.00000000    0.00000000    0.00070364
     atom    3 type  1   force =     0.00000000   -0.00000000   -0.00070364
     atom    4 type  1   force =     0.00000000   -0.00000000    0.00070364
     atom    5 type  2   force =     0.00063446   -0.00000000    0.00000000
     atom    6 type  2   force =     0.00031723    0.00054946    0.00000000
     atom    7 type  2   force =    -0.00031723    0.00054946    0.00000000
     atom    8 type  2   force =     0.00031723   -0.00054946   -0.00000000
     atom    9 type  2   force =    -0.00031723   -0.00054946   -0.00000000
     atom   10 type  2   force =    -0.00063446    0.00000000    0.00000000

     Total force =     0.002097     Total SCF correction =     0.000094

     bfgs converged in  14 scf cycles and  13 bfgs steps
     (criteria: energy <  1.0E-04 Ry, force <  1.0E-02 Ry/Bohr)

     End of BFGS Geometry Optimization

     Final energy             =    -220.1194463026 Ry
Begin final coordinates

ATOMIC_POSITIONS (crystal)
Al       0.130151189   0.130151189   0.130151189
Al       0.369848811   0.369848811   0.369848811
Al       0.630151189   0.630151189   0.630151189
Al       0.869848811   0.869848811   0.869848811
O       -0.051694668   0.750000000   0.551694668
O        0.250000000   0.448305332   1.051694668
O        0.551694668  -0.051694668   0.750000000
O        0.448305332   1.051694668   0.250000000
O        0.750000000   0.551694668  -0.051694668
O        1.051694668   0.250000000   0.448305332
End final coordinates

     Writing output data file pwscf.save\

     General routines

     Parallel routines

   This run was terminated on:  18:50: 3  14Jan2023

   JOB DONE.