     Program PWSCF v.6.4.1 starts on 14Jan2023 at 19: 3: 5

     Waiting for input...
     Reading input from standard input

     Current dimensions of program PWSCF are:
     Max number of different atomic species (ntypx) = 10
     Max number of k-points (npk) =  40000
     Max angular momentum in pseudopotentials (lmaxx) =  3
     Message from routine setup:
     At least one non s.o. pseudo

     Subspace diagonalization in iterative solution of the eigenvalue problem:
     a serial algorithm will be used

     bravais-lattice index     =            5
     lattice parameter (alat)  =       9.7850  a.u.
     unit-cell volume          =     936.8774 (a.u.)^3
     number of atoms/cell      =           10
     number of atomic types    =            2
     number of electrons       =        48.00
     number of Kohn-Sham states=           58
     kinetic-energy cutoff     =      50.0000  Ry
     charge density cutoff     =     450.0000  Ry
     convergence threshold     =      1.0E-06
     mixing beta               =       0.7000
     number of iterations used =            8  plain     mixing
     Exchange-correlation      = SLA  PZ   NOGX NOGC ( 1  1  0  0 0 0)
     nstep                     =           50

     Non magnetic calculation with spin-orbit

     celldm(1)=   9.785002  celldm(2)=   0.000000  celldm(3)=   0.000000
     celldm(4)=   0.000000  celldm(5)=   0.000000  celldm(6)=   0.000000

     crystal axes: (cart. coord. in units of alat)
               a(1) = (   0.707107  -0.408248   0.577350 )
               a(2) = (   0.000000   0.816497   0.577350 )
               a(3) = (  -0.707107  -0.408248   0.577350 )

     reciprocal axes: (cart. coord. in units 2 pi/alat)
               b(1) = (  0.707107 -0.408248  0.577350 )
               b(2) = (  0.000000  0.816497  0.577350 )
               b(3) = ( -0.707107 -0.408248  0.577350 )

     PseudoPot. # 1 for Al read from file:
     .\al_lda_v1.uspp.F.UPF
     MD5 check sum: 51a9e5980debfdd3404790b200e14add
     Pseudo is Ultrasoft + core correction, Zval =  3.0
     Generated by new atomic code, or converted to UPF format
     Using radial grid of  893 points,  3 beta functions with:
                l(1) =   0
                l(2) =   1
                l(3) =   2
     Q(r) pseudized with  8 coefficients,  rinner =    0.900   0.900   0.900
                                                       0.900   0.900

     PseudoPot. # 2 for O  read from file:
     .\o_lda_v1.2.uspp.F.UPF
     MD5 check sum: 194b818514d2a7dbb603bb78519a4f40
     Pseudo is Ultrasoft + core correction, Zval =  6.0
     Generated by new atomic code, or converted to UPF format
     Using radial grid of  737 points,  5 beta functions with:
                l(1) =   0
                l(2) =   0
                l(3) =   1
                l(4) =   1
                l(5) =   2
     Q(r) pseudized with  8 coefficients,  rinner =    0.900   0.900   0.900
                                                       0.900   0.900

     atomic species   valence    mass     pseudopotential
        Al             3.00    26.98154     Al( 1.00)
        O              6.00    15.99900     O ( 1.00)

     12 Sym. Ops., with inversion, found ( 6 have fractional translation)

   Cartesian axes

     site n.     atom                  positions (alat units)
         1           Al  tau(   1) = (   0.0000000  -0.0000000   0.2561703  )
         2           Al  tau(   2) = (   0.0000000  -0.0000000   0.6098551  )
         3           Al  tau(   3) = (   0.0000000  -0.0000000   1.1221957  )
         4           Al  tau(   4) = (   0.0000000  -0.0000000   1.4758805  )
         5           O   tau(   5) = (  -0.2742160   0.4082483   0.7216878  )
         6           O   tau(   6) = (  -0.4906614  -0.0333539   1.0103630  )
         7           O   tau(   7) = (  -0.2164454  -0.4416022   0.7216878  )
         8           O   tau(   8) = (   0.2164454   0.4416022   1.0103630  )
         9           O   tau(   9) = (   0.4906614   0.0333539   0.7216878  )
        10           O   tau(  10) = (   0.2742160  -0.4082483   1.0103630  )

     number of k points=    22  gaussian smearing, width (Ry)=  0.0100
                       cart. coord. in units 2pi/alat
        k(    1) = (   0.0000000   0.0000000   0.0000000), wk =   0.0138889
        k(    2) = (   0.3535534   0.2041241  -0.2886751), wk =   0.0416667
        k(    3) = (   0.0000000   0.1360828   0.0962250), wk =   0.0555556
        k(    4) = (   0.3535534   0.3402069  -0.1924501), wk =   0.1111111
        k(    5) = (   0.0000000   0.2721655   0.1924501), wk =   0.0555556
        k(    6) = (   0.3535534   0.4762897  -0.0962250), wk =   0.1111111
        k(    7) = (   0.3535534  -0.2041241  -0.5773503), wk =   0.0416667
        k(    8) = (   0.1178511   0.0680414   0.1924501), wk =   0.0277778
        k(    9) = (   0.4714045   0.2721655  -0.0962250), wk =   0.0277778
        k(   10) = (   0.1178511   0.2041241   0.2886751), wk =   0.0555556
        k(   11) = (   0.4714045   0.4082483   0.0000000), wk =   0.0555556
        k(   12) = (   0.4714045  -0.2721655  -0.4811252), wk =   0.0555556
        k(   13) = (   0.1178511  -0.3402069  -0.0962250), wk =   0.0555556
        k(   14) = (   0.4714045  -0.1360828  -0.3849002), wk =   0.0555556
        k(   15) = (   0.1178511  -0.2041241  -0.0000000), wk =   0.0277778
        k(   16) = (   0.4714045   0.0000000  -0.2886751), wk =   0.0277778
        k(   17) = (   0.2357023   0.1360828   0.3849002), wk =   0.0277778
        k(   18) = (   0.5892557   0.3402069   0.0962250), wk =   0.0277778
        k(   19) = (   0.5892557  -0.3402069  -0.3849002), wk =   0.0555556
        k(   20) = (   0.2357023  -0.4082483  -0.0000000), wk =   0.0277778
        k(   21) = (   0.5892557  -0.2041241  -0.2886751), wk =   0.0277778
        k(   22) = (   0.0000000   0.0000000  -0.8660254), wk =   0.0138889

     Initial potential from superposition of free atoms

     starting charge   47.99122, renormalised to   48.00000
     Starting wfcs are   80 randomized atomic wfcs

     Self-consistent Calculation

     iteration #  1     ecut=    50.00 Ry     beta= 0.70
     Davidson diagonalization with overlap
     ethr =  1.00E-02,  avg # of iterations =  2.0

     total energy              =    -217.33337857 Ry
     Harris-Foulkes estimate   =    -219.24885448 Ry
     estimated scf accuracy    <       2.47258210 Ry

[...]

     End of self-consistent calculation

          k = 0.0000 0.0000 0.0000 (  5575 PWs)   bands (ev):

   -13.5476 -13.5476 -12.6234 -12.6234 -12.6234 -12.6234 -12.2915 -12.2915
   -12.2915 -12.2915 -12.0059 -12.0059  -3.3239  -3.3239  -1.7991  -1.7991
    -1.1826  -1.1826  -0.1909  -0.1909  -0.1909  -0.1909  -0.1444  -0.1444
    -0.1444  -0.1444   0.5251   0.5251   0.5251   0.5251   0.9982   0.9982
     1.3360   1.3360   1.3360   1.3360   2.0219   2.0219   2.4099   2.4099
     2.4112   2.4112   2.4112   2.4112   2.9907   2.9907   2.9907   2.9907
     3.4776   3.4776   3.5611   3.5611   3.9595   3.9595   5.1115   5.1115
     7.6243   7.6243

[...]

     the Fermi energy is     3.1464 ev

!    total energy              =    -218.78220675 Ry
     Harris-Foulkes estimate   =    -218.78220738 Ry
     estimated scf accuracy    <       0.00000093 Ry

     The total energy is the sum of the following terms:

     one-electron contribution =     -68.70523680 Ry
     hartree contribution      =      60.46422616 Ry
     xc contribution           =     -57.95482961 Ry
     ewald contribution        =    -152.58139096 Ry
     smearing contrib. (-TS)   =      -0.00497554 Ry

     convergence has been achieved in   7 iterations

     Forces acting on atoms (cartesian axes, Ry/au):

     atom    1 type  1   force =     0.00000000    0.00000000   -0.52859050
     atom    2 type  1   force =    -0.00000000    0.00000000    0.52859050
     atom    3 type  1   force =    -0.00000000   -0.00000000   -0.52859050
     atom    4 type  1   force =     0.00000000   -0.00000000    0.52859050
     atom    5 type  2   force =    -0.07058496   -0.00000000    0.00000000
     atom    6 type  2   force =    -0.03529248   -0.06112837   -0.00000000
     atom    7 type  2   force =     0.03529248   -0.06112837   -0.00000000
     atom    8 type  2   force =    -0.03529248    0.06112837    0.00000000
     atom    9 type  2   force =     0.03529248    0.06112837    0.00000000
     atom   10 type  2   force =     0.07058496    0.00000000    0.00000000

     Total force =     1.071226     Total SCF correction =     0.000255

     Computing stress (Cartesian axis) and pressure

          total   stress  (Ry/bohr**3)                   (kbar)     P= -144.96
  -0.00362535   0.00000000  -0.00000000       -533.31      0.00     -0.00
  -0.00000000  -0.00362535  -0.00000000         -0.00   -533.31     -0.00
  -0.00000000  -0.00000000   0.00429450         -0.00     -0.00    631.74

     BFGS Geometry Optimization

     number of scf cycles    =   1
     number of bfgs steps    =   0

     enthalpy           new  =    -218.7822067520 Ry

     new trust radius        =       0.5000000000 bohr
     new conv_thr            =       0.0000010000 Ry

     new unit-cell volume =    878.46799 a.u.^3 (   130.17552 Ang^3 )
     density =      2.60124 g/cm^3

CELL_PARAMETERS (alat=  9.78500192)
   0.658351524  -0.380099429   0.624506383
   0.000000000   0.760198859   0.624506383
  -0.658351524  -0.380099429   0.624506383

ATOMIC_POSITIONS (crystal)
Al       0.124172937   0.124172937   0.124172937
Al       0.375827063   0.375827063   0.375827063
Al       0.624172937   0.624172937   0.624172937
Al       0.875827063   0.875827063   0.875827063
O        0.052219547   0.750000000   0.447780453
O        0.250000000   0.552219547   0.947780453
O        0.447780453   0.052219547   0.750000000
O        0.552219547   0.947780453   0.250000000
O        0.750000000   0.447780453   0.052219547
O        0.947780453   0.250000000   0.552219547

     Writing output data file pwscf.save\
     NEW-OLD atomic charge density approx. for the potential

     negative rho (up, down):  1.721E-02 0.000E+00
     extrapolated charge   44.80906, renormalised to   48.00000

[...]

     negative rho (up, down):  2.737E-03 0.000E+00

[...]

     enthalpy           old  =    -218.7822067520 Ry
     enthalpy           new  =    -219.7598474305 Ry

     CASE: enthalpy          _new < enthalpy          _old

[...]

     WARNING: bfgs curvature condition failed, Theta= 0.979
     new trust radius        =       0.8000000000 bohr
     new conv_thr            =       0.0000001510 Ry

[...]

          k =-0.0000-0.0000-0.6063 (  5616 PWs)   bands (ev):

[...]

     Writing output data file pwscf.save\
     NEW-OLD atomic charge density approx. for the potential

     negative rho (up, down):  1.057E-05 0.000E+00
     extrapolated charge   48.95931, renormalised to   48.00000

[...]

     Writing output data file pwscf.save\
     NEW-OLD atomic charge density approx. for the potential
     extrapolated charge   48.04518, renormalised to   48.00000

[...]

     Threshold (ethr) on eigenvalues was too large:
     Diagonalizing with lowered threshold

     Davidson diagonalization with overlap
     ethr =  7.13E-08,  avg # of iterations =  1.0

[...]

     Total force =     0.000259     Total SCF correction =     0.000008

[...]

     number of scf cycles    =  13
     number of bfgs steps    =  12

     enthalpy           old  =    -221.7339337612 Ry
     enthalpy           new  =    -221.7339435300 Ry

     CASE: enthalpy          _new < enthalpy          _old

     new trust radius        =       0.0006584588 bohr
     new conv_thr            =       0.0000000100 Ry

     new unit-cell volume =    558.16996 a.u.^3 (    82.71225 Ang^3 )
     density =      4.09392 g/cm^3

[...]

ATOMIC_POSITIONS (crystal)
Al       0.147157045   0.147157045   0.147157045
Al       0.352842955   0.352842955   0.352842955
Al       0.647157045   0.647157045   0.647157045
Al       0.852842955   0.852842955   0.852842955
O        0.055265031   0.750000000   0.444734969
O        0.250000000   0.555265031   0.944734969
O        0.444734969   0.055265031   0.750000000
O        0.555265031   0.944734969   0.250000000
O        0.750000000   0.444734969   0.055265031
O        0.944734969   0.250000000   0.555265031

     Writing output data file pwscf.save\
     NEW-OLD atomic charge density approx. for the potential
     extrapolated charge   47.99654, renormalised to   48.00000

[...]

     Threshold (ethr) on eigenvalues was too large:
     Diagonalizing with lowered threshold

     Davidson diagonalization with overlap
     ethr =  1.96E-09,  avg # of iterations =  1.6

[...]

     Total force =     0.000048     Total SCF correction =     0.000013
     SCF correction compared to forces is large: reduce conv_thr to get better values

[...]

     bfgs converged in  14 scf cycles and  13 bfgs steps
     (criteria: energy <  1.0E-04 Ry, force <  1.0E-02Ry/Bohr, cell <  5.0E-01kbar)

     End of BFGS Geometry Optimization

     Final enthalpy           =    -221.7339441486 Ry
Begin final coordinates
     new unit-cell volume =    558.16996 a.u.^3 (    82.71225 Ang^3 )
     density =      4.09392 g/cm^3

CELL_PARAMETERS (alat=  9.78500192)
   0.459372436  -0.265218800   0.815010536
  -0.000000000   0.530437599   0.815010536
  -0.459372436  -0.265218800   0.815010536

ATOMIC_POSITIONS (crystal)
Al       0.147157045   0.147157045   0.147157045
Al       0.352842955   0.352842955   0.352842955
Al       0.647157045   0.647157045   0.647157045
Al       0.852842955   0.852842955   0.852842955
O        0.055265031   0.750000000   0.444734969
O        0.250000000   0.555265031   0.944734969
O        0.444734969   0.055265031   0.750000000
O        0.555265031   0.944734969   0.250000000
O        0.750000000   0.444734969   0.055265031
O        0.944734969   0.250000000   0.555265031
End final coordinates

     Writing output data file pwscf.save\

     A final scf calculation at the relaxed structure.
     The G-vectors are recalculated for the final unit cell
     Results may differ from those at the preceding step.

     bravais-lattice index     =            5
     lattice parameter (alat)  =       9.7850  a.u.
     unit-cell volume          =     558.1700 (a.u.)^3
     number of atoms/cell      =           10
     number of atomic types    =            2
     number of electrons       =        48.00
     number of Kohn-Sham states=           58
     kinetic-energy cutoff     =      50.0000  Ry
     charge density cutoff     =     450.0000  Ry
     convergence threshold     =      1.0E-08
     mixing beta               =       0.7000
     number of iterations used =            8  plain     mixing
     Exchange-correlation      = SLA  PZ   NOGX NOGC ( 1  1  0  0 0 0)
     Non magnetic calculation with spin-orbit

     celldm(1)=   9.785002  celldm(2)=   0.000000  celldm(3)=   0.000000
     celldm(4)=   0.000000  celldm(5)=   0.000000  celldm(6)=   0.000000

     crystal axes: (cart. coord. in units of alat)
               a(1) = (   0.459372  -0.265219   0.815011 )
               a(2) = (  -0.000000   0.530438   0.815011 )
               a(3) = (  -0.459372  -0.265219   0.815011 )

     reciprocal axes: (cart. coord. in units 2 pi/alat)
               b(1) = (  1.088441 -0.628412  0.408993 )
               b(2) = (  0.000000  1.256824  0.408993 )
               b(3) = ( -1.088441 -0.628412  0.408993 )

     PseudoPot. # 1 for Al read from file:
     .\al_lda_v1.uspp.F.UPF
     MD5 check sum: 51a9e5980debfdd3404790b200e14add
     Pseudo is Ultrasoft + core correction, Zval =  3.0
     Generated by new atomic code, or converted to UPF format
     Using radial grid of  893 points,  3 beta functions with:
                l(1) =   0
                l(2) =   1
                l(3) =   2
     Q(r) pseudized with  8 coefficients,  rinner =    0.900   0.900   0.900
                                                       0.900   0.900

     PseudoPot. # 2 for O  read from file:
     .\o_lda_v1.2.uspp.F.UPF
     MD5 check sum: 194b818514d2a7dbb603bb78519a4f40
     Pseudo is Ultrasoft + core correction, Zval =  6.0
     Generated by new atomic code, or converted to UPF format
     Using radial grid of  737 points,  5 beta functions with:
                l(1) =   0
                l(2) =   0
                l(3) =   1
                l(4) =   1
                l(5) =   2
     Q(r) pseudized with  8 coefficients,  rinner =    0.900   0.900   0.900
                                                       0.900   0.900

     atomic species   valence    mass     pseudopotential
        Al             3.00    26.98154     Al( 1.00)
        O              6.00    15.99900     O ( 1.00)

     12 Sym. Ops., with inversion, found ( 6 have fractional translation)

   Cartesian axes

     site n.     atom                  positions (alat units)
         1           Al  tau(   1) = (   0.0000000  -0.0000000   0.3598036  )
         2           Al  tau(   2) = (  -0.0000000  -0.0000000   0.8627122  )
         3           Al  tau(   3) = (   0.0000000  -0.0000000   1.5823194  )
         4           Al  tau(   4) = (   0.0000000  -0.0000000   2.0852280  )
         5           O   tau(   5) = (  -0.1789118   0.2652188   1.0187632  )
         6           O   tau(   6) = (  -0.3191421  -0.0223327   1.4262684  )
         7           O   tau(   7) = (  -0.1402303  -0.2875515   1.0187632  )
         8           O   tau(   8) = (   0.1402303   0.2875515   1.4262684  )
         9           O   tau(   9) = (   0.3191421   0.0223327   1.0187632  )
        10           O   tau(  10) = (   0.1789118  -0.2652188   1.4262684  )

     number of k points=    22  gaussian smearing, width (Ry)=  0.0100
                       cart. coord. in units 2pi/alat
        k(    1) = (   0.0000000   0.0000000   0.0000000), wk =   0.0138889
        k(    2) = (   0.5442207   0.3142060  -0.2044963), wk =   0.0416667
        k(    3) = (   0.0000000   0.2094707   0.0681654), wk =   0.0555556
        k(    4) = (   0.5442207   0.5236766  -0.1363309), wk =   0.1111111
        k(    5) = (   0.0000000   0.4189413   0.1363309), wk =   0.0555556
        k(    6) = (   0.5442207   0.7331473  -0.0681654), wk =   0.1111111
        k(    7) = (   0.5442207  -0.3142060  -0.4089927), wk =   0.0416667
        k(    8) = (   0.1814069   0.1047353   0.1363309), wk =   0.0277778
        k(    9) = (   0.7256276   0.4189413  -0.0681654), wk =   0.0277778
        k(   10) = (   0.1814069   0.3142060   0.2044963), wk =   0.0555556
        k(   11) = (   0.7256276   0.6284120   0.0000000), wk =   0.0555556
        k(   12) = (   0.7256276  -0.4189413  -0.3408272), wk =   0.0555556
        k(   13) = (   0.1814069  -0.5236766  -0.0681654), wk =   0.0555556
        k(   14) = (   0.7256276  -0.2094707  -0.2726618), wk =   0.0555556
        k(   15) = (   0.1814069  -0.3142060  -0.0000000), wk =   0.0277778
        k(   16) = (   0.7256276  -0.0000000  -0.2044963), wk =   0.0277778
        k(   17) = (   0.3628138   0.2094707   0.2726618), wk =   0.0277778
        k(   18) = (   0.9070345   0.5236766   0.0681654), wk =   0.0277778
        k(   19) = (   0.9070345  -0.5236766  -0.2726618), wk =   0.0555556
        k(   20) = (   0.3628138  -0.6284120  -0.0000000), wk =   0.0277778
        k(   21) = (   0.9070345  -0.3142060  -0.2044963), wk =   0.0277778
        k(   22) = (  -0.0000000  -0.0000000  -0.6134890), wk =   0.0138889

     Initial potential from superposition of free atoms

     starting charge   47.99122, renormalised to   48.00000
     Starting wfcs are   80 randomized atomic wfcs

     Self-consistent Calculation

[...]

     negative rho (up, down):  2.075E-07 0.000E+00

[...]

     total energy              =    -221.75057389 Ry
     Harris-Foulkes estimate   =    -221.75057390 Ry
     estimated scf accuracy    <       0.00000001 Ry

     iteration #  9     ecut=    50.00 Ry     beta= 0.70
     Davidson diagonalization with overlap
     ethr =  2.73E-11,  avg # of iterations =  1.9

     End of self-consistent calculation

[...]

          k = 0.9070-0.3142-0.2045 (  3320 PWs)   bands (ev):

[...]

          k =-0.0000-0.0000-0.6135 (  3342 PWs)   bands (ev):

   -10.4085 -10.4085 -10.4085 -10.4085  -8.5063  -8.5063  -8.5063  -8.5063
    -8.5063  -8.5063  -8.5063  -8.5063   1.8447   1.8447   1.8447   1.8447
     3.1137   3.1137   3.1137   3.1137   3.1137   3.1137   3.1137   3.1137
     3.6946   3.6946   3.6946   3.6946   5.4166   5.4166   5.4166   5.4166
     5.6975   5.6975   5.6975   5.6975   5.6975   5.6975   5.6975   5.6975
     7.2470   7.2470   7.2470   7.2470   7.2470   7.2470   7.2470   7.2470
    16.3995  16.3995  16.3995  16.3995  18.6785  18.6785  18.6786  18.6786
    20.0615  20.0615

     the Fermi energy is    12.2998 ev

!    total energy              =    -221.75057389 Ry
     Harris-Foulkes estimate   =    -221.75057389 Ry
     estimated scf accuracy    <          2.7E-09 Ry

     The total energy is the sum of the following terms:

     one-electron contribution =     -35.17975369 Ry
     hartree contribution      =      53.04861285 Ry
     xc contribution           =     -61.78196540 Ry
     ewald contribution        =    -177.83746765 Ry
     smearing contrib. (-TS)   =      -0.00000000 Ry

     convergence has been achieved in   9 iterations

     Forces acting on atoms (cartesian axes, Ry/au):

     atom    1 type  1   force =    -0.00000000   -0.00000000   -0.00009743
     atom    2 type  1   force =     0.00000000    0.00000000    0.00009743
     atom    3 type  1   force =    -0.00000000   -0.00000000   -0.00009743
     atom    4 type  1   force =     0.00000000    0.00000000    0.00009743
     atom    5 type  2   force =     0.00023783    0.00000000    0.00000000
     atom    6 type  2   force =     0.00011891    0.00020596    0.00000000
     atom    7 type  2   force =    -0.00011891    0.00020596    0.00000000
     atom    8 type  2   force =     0.00011891   -0.00020596   -0.00000000
     atom    9 type  2   force =    -0.00011891   -0.00020596   -0.00000000
     atom   10 type  2   force =    -0.00023783    0.00000000   -0.00000000

     Total force =     0.000614     Total SCF correction =     0.000074
     SCF correction compared to forces is large: reduce conv_thr to get better values

     Computing stress (Cartesian axis) and pressure

          total   stress  (Ry/bohr**3)                   (kbar)     P=   28.45
  -0.00000013   0.00000000   0.00000000         -0.02      0.00      0.00
  -0.00000000  -0.00000013   0.00000000         -0.00     -0.02      0.00
   0.00000000   0.00000000   0.00058049          0.00      0.00     85.39

     Writing output data file pwscf.save\

     General routines

     Parallel routines

   This run was terminated on:  20: 8:30  14Jan2023

   JOB DONE.