     Program PWSCF v.6.4.1 starts on 14Jan2023 at 18: 0:42

     Waiting for input...
     Reading input from standard input

     Current dimensions of program PWSCF are:
     Max number of different atomic species (ntypx) = 10
     Max number of k-points (npk) =  40000
     Max angular momentum in pseudopotentials (lmaxx) =  3
     Message from routine setup:
     At least one non s.o. pseudo

     Subspace diagonalization in iterative solution of the eigenvalue problem:
     a serial algorithm will be used

     bravais-lattice index     =            5
     lattice parameter (alat)  =       9.7850  a.u.
     unit-cell volume          =     936.8774 (a.u.)^3
     number of atoms/cell      =           10
     number of atomic types    =            2
     number of electrons       =        48.00
     number of Kohn-Sham states=           48
     kinetic-energy cutoff     =      50.0000  Ry
     charge density cutoff     =     200.0000  Ry
     convergence threshold     =      1.0E-06
     mixing beta               =       0.7000
     number of iterations used =            8  plain     mixing
     Exchange-correlation      = SLA  PZ   NOGX NOGC ( 1  1  0  0 0 0)
     Non magnetic calculation with spin-orbit

     celldm(1)=   9.785002  celldm(2)=   0.000000  celldm(3)=   0.000000
     celldm(4)=   0.000000  celldm(5)=   0.000000  celldm(6)=   0.000000

     crystal axes: (cart. coord. in units of alat)
               a(1) = (   0.707107  -0.408248   0.577350 )
               a(2) = (   0.000000   0.816497   0.577350 )
               a(3) = (  -0.707107  -0.408248   0.577350 )

     reciprocal axes: (cart. coord. in units 2 pi/alat)
               b(1) = (  0.707107 -0.408248  0.577350 )
               b(2) = (  0.000000  0.816497  0.577350 )
               b(3) = ( -0.707107 -0.408248  0.577350 )

     PseudoPot. # 1 for Al read from file:
     .\al_lda_v1.uspp.F.UPF
     MD5 check sum: 51a9e5980debfdd3404790b200e14add
     Pseudo is Ultrasoft + core correction, Zval =  3.0
     Generated by new atomic code, or converted to UPF format
     Using radial grid of  893 points,  3 beta functions with:
                l(1) =   0
                l(2) =   1
                l(3) =   2
     Q(r) pseudized with  8 coefficients,  rinner =    0.900   0.900   0.900
                                                       0.900   0.900

     PseudoPot. # 2 for O  read from file:
     .\o_lda_v1.2.uspp.F.UPF
     MD5 check sum: 194b818514d2a7dbb603bb78519a4f40
     Pseudo is Ultrasoft + core correction, Zval =  6.0
     Generated by new atomic code, or converted to UPF format
     Using radial grid of  737 points,  5 beta functions with:
                l(1) =   0
                l(2) =   0
                l(3) =   1
                l(4) =   1
                l(5) =   2
     Q(r) pseudized with  8 coefficients,  rinner =    0.900   0.900   0.900
                                                       0.900   0.900

     atomic species   valence    mass     pseudopotential
        Al             3.00    26.98154     Al( 1.00)
        O              6.00    15.99900     O ( 1.00)

     12 Sym. Ops., with inversion, found ( 6 have fractional translation)

   Cartesian axes

     site n.     atom                  positions (alat units)
         1           Al  tau(   1) = (   0.0000000  -0.0000000   0.2561703  )
         2           Al  tau(   2) = (   0.0000000  -0.0000000   0.6098551  )
         3           Al  tau(   3) = (   0.0000000  -0.0000000   1.1221957  )
         4           Al  tau(   4) = (   0.0000000  -0.0000000   1.4758805  )
         5           O   tau(   5) = (  -0.2742160   0.4082483   0.7216878  )
         6           O   tau(   6) = (  -0.4906614  -0.0333539   1.0103630  )
         7           O   tau(   7) = (  -0.2164454  -0.4416022   0.7216878  )
         8           O   tau(   8) = (   0.2164454   0.4416022   1.0103630  )
         9           O   tau(   9) = (   0.4906614   0.0333539   0.7216878  )
        10           O   tau(  10) = (   0.2742160  -0.4082483   1.0103630  )

     number of k points=    13
                       cart. coord. in units 2pi/alat
        k(    1) = (   0.0000000   0.0000000   0.0000000), wk =   0.0156250
        k(    2) = (  -0.1767767  -0.1020621   0.1443376), wk =   0.0937500
        k(    3) = (   0.3535534   0.2041241  -0.2886751), wk =   0.0468750
        k(    4) = (  -0.1767767   0.1020621   0.2886751), wk =   0.0937500
        k(    5) = (   0.3535534   0.4082483  -0.1443376), wk =   0.1875000
        k(    6) = (   0.1767767   0.3061862   0.0000000), wk =   0.0937500
        k(    7) = (   0.3535534  -0.2041241  -0.5773503), wk =   0.0468750
        k(    8) = (   0.0000000   0.0000000   0.4330127), wk =   0.0312500
        k(    9) = (   0.5303301   0.3061862   0.0000000), wk =   0.0937500
        k(   10) = (   0.3535534   0.2041241   0.1443376), wk =   0.0937500
        k(   11) = (   0.5303301  -0.3061862  -0.4330127), wk =   0.0937500
        k(   12) = (   0.3535534  -0.4082483  -0.2886751), wk =   0.0937500
        k(   13) = (   0.0000000   0.0000000  -0.8660254), wk =   0.0156250

     Check: negative core charge=   -0.000002

     Initial potential from superposition of free atoms

     starting charge   47.99122, renormalised to   48.00000
     Starting wfcs are   80 randomized atomic wfcs

     Self-consistent Calculation

     iteration #  1     ecut=    50.00 Ry     beta= 0.70
     Davidson diagonalization with overlap
     ethr =  1.00E-02,  avg # of iterations =  2.0

     total energy              =    -217.05431835 Ry
     Harris-Foulkes estimate   =    -219.23631055 Ry
     estimated scf accuracy    <       2.80426697 Ry

[...]

     total energy              =    -218.77491236 Ry
     Harris-Foulkes estimate   =    -218.77491268 Ry
     estimated scf accuracy    <       0.00000147 Ry

     iteration # 24     ecut=    50.00 Ry     beta= 0.70
     Davidson diagonalization with overlap
     ethr =  3.07E-09,  avg # of iterations =  3.1

     End of self-consistent calculation

          k = 0.0000 0.0000 0.0000 (  5575 PWs)   bands (ev):

   -13.5298 -13.5298 -12.6032 -12.6032 -12.6032 -12.6032 -12.2714 -12.2714
   -12.2714 -12.2714 -11.9853 -11.9853  -3.3288  -3.3288  -1.8101  -1.8101
    -1.1837  -1.1837  -0.1808  -0.1808  -0.1808  -0.1808  -0.1241  -0.1241
    -0.1241  -0.1241   0.5383   0.5383   0.5383   0.5383   0.9971   0.9971
     1.3455   1.3455   1.3455   1.3455   2.0319   2.0319   2.4264   2.4264
     2.4264   2.4264   2.4311   2.4311   3.0193   3.0193   3.0193   3.0193

          k =-0.1768-0.1021 0.1443 (  5606 PWs)   bands (ev):

[...]

          k =-0.1768 0.1021 0.2887 (  5574 PWs)   bands (ev):

[...]

          k = 0.0000 0.0000-0.8660 (  5616 PWs)   bands (ev):

   -12.6023 -12.6023 -12.6023 -12.6023 -12.6023 -12.6023 -12.6023 -12.6023
   -12.4933 -12.4933 -12.4933 -12.4933  -3.5294  -3.5294  -3.5294  -3.5294
     0.0660   0.0660   0.0660   0.0660   0.2653   0.2653   0.2653   0.2653
     0.2653   0.2653   0.2653   0.2653   1.5424   1.5424   1.5424   1.5424
     1.5424   1.5424   1.5424   1.5424   2.1497   2.1497   2.1497   2.1497
     2.7102   2.7102   2.7102   2.7102   2.7102   2.7102   2.7102   2.7102

     highest occupied level (ev):     3.2109

!    total energy              =    -218.77491242 Ry
     Harris-Foulkes estimate   =    -218.77491274 Ry
     estimated scf accuracy    <       0.00000042 Ry

     The total energy is the sum of the following terms:

     one-electron contribution =     -68.74781420 Ry
     hartree contribution      =      60.51320481 Ry
     xc contribution           =     -57.95891207 Ry
     ewald contribution        =    -152.58139096 Ry

     convergence has been achieved in  24 iterations

     Writing output data file pwscf.save\

     General routines

     Parallel routines

   This run was terminated on:  18: 4:23  14Jan2023

   JOB DONE.